unknown
(model
; cardinality of BoundSet is 3
(declare-sort BoundSet 0)
; rep: @uc_BoundSet_0
; rep: @uc_BoundSet_1
; rep: @uc_BoundSet_2
; cardinality of UnboundSet is 1
(declare-sort UnboundSet 0)
(declare-fun groundTerm_4 () UnboundSet)
(define-fun IsOver65 ((BOUND_VARIABLE_485 BoundSet)) Bool true)
(define-fun IsGlobalPopulation ((BOUND_VARIABLE_485 BoundSet)) Bool true)
(define-fun IsPeople ((BOUND_VARIABLE_485 BoundSet)) Bool true)
(define-fun WillHaveIncrease ((BOUND_VARIABLE_497 BoundSet) (BOUND_VARIABLE_498 BoundSet)) Bool false)
(define-fun IsIn2070 ((BOUND_VARIABLE_485 BoundSet)) Bool false)
)
sat
(model
; cardinality of BoundSet is 1
(declare-sort BoundSet 0)
; rep: @uc_BoundSet_0
; cardinality of UnboundSet is 1
(declare-sort UnboundSet 0)
(declare-fun groundTerm_11 () UnboundSet)
(define-fun IsOver65 ((BOUND_VARIABLE_575 BoundSet)) Bool true)
(define-fun IsGlobalPopulation ((BOUND_VARIABLE_575 BoundSet)) Bool true)
(define-fun IsPeople ((BOUND_VARIABLE_575 BoundSet)) Bool true)
(define-fun WillHaveIncrease ((BOUND_VARIABLE_582 BoundSet) (BOUND_VARIABLE_583 BoundSet)) Bool true)
(define-fun IsIn2070 ((BOUND_VARIABLE_575 BoundSet)) Bool false)
)
